(set-logic QF_S)
(declare-fun var0 () Bool)
(declare-fun var1 () String)
(declare-fun var2 () String)
(declare-fun var3 () String)
(declare-fun var4 () String)
(declare-fun var5 () Int)
(declare-fun var6 () Int)
(declare-fun var7 () Int)
(declare-fun var8 () Int)
(assert (not var0))
(assert (str.prefixof (str.at (str.replace var1 var2 var3) (str.to.int var4)) (str.replace (str.at var4 var5) (str.replace var4 var3 var1) (str.substr var1 var6 var7))))
(assert (str.in.re (str.substr (str.substr var2 var8 var5) (str.indexof var2 var2 var6) (str.indexof var2 var2 var6)) (re.* re.allchar)))
(assert (< (str.indexof var2 var3 var8) (str.to.int var3)))
(check-sat)